c colouring generated by benchmark framework
p edge 23 71
v 1 2
v 2 3
v 3 0
v 4 3
v 5 1
v 6 2
v 7 1
v 8 2
v 9 3
v 10 1
v 11 0
v 12 2
v 13 1
v 14 2
v 15 0
v 16 4
v 17 1
v 18 1
v 19 2
v 20 4
v 21 1
v 22 0
v 23 3
